HUN,8,6,617
0,17,4,26,2,27,5,12,3,4,1,2
0,7,1,26,2,15,3,30,4,25,5,3
1,17,4,20,3,5,5,28,0,3,2,30
0,21,2,3,4,16,5,15,3,16,1,12
4,26,2,22,0,15,1,25,3,20,5,21
1,26,5,28,4,24,2,14,0,25,3,17
5,16,4,16,3,23,0,22,2,17,1,25
1,28,2,17,5,13,0,27,4,1,3,21
